4 
5  15 27 38 57 
6  05 13 22 32 40 48 55 
7  03 10 18 25 33 40 48 55 
8  03 10 18 25 33 40 48 55 
9  03 10 18 25 32 40 47 55 
10  02 10 17 25 32 40 47 55 
11  02 10 17 25 32 40 47 55 
12  02 10 17 25 32 40 47 55 
13  02 10 17 25 32 40 47 55 
14  02 10 17 25 32 40 47 55 
15  02 10 17 25 32 40 47 55 
16  02 10 17 25 32 40 47 55 
17  02 10 17 25 32 40 47 55 
18  02 10 17 25 32 40 47 55 
19  02 10 17 25 32 40 47 55 
20  02 10 17 25 34 49 
21  04 19 34 49 
22  04 18 33 49 
23  03 15 
0 
